10	5
0	4	2	1	3	7
1	2	9	4
2	0
3	0
4	1	6
5	1	8
6	1	5
7	2	4	9
8	1	11
9	1	11
10	2	3	11
11	0
0	0	0	0	0	0	0
1	4	3	2	4	1	3
2	10	4	1	1	1	1
3	1	2	2	2	2	5
4	4	5	2	4	5	4
5	9	5	5	3	3	1
6	6	3	3	1	4	2
7	10	5	5	2	3	2
8	5	5	5	3	3	3
9	9	2	4	1	4	4
10	1	4	1	5	4	3
11	0	0	0	0	0	0
9	7	6	7	6
